     200         1
     199         2
     197         2
     196         2
     193         3
     192         2
     191         2
     190         2
     189         3
     188         1
     187         1
     185         3
     183         2
     182         1
     181         3
     180         3
     179         3
     178         1
     177         5
     176         2
     175         5
     174         4
     173         1
     171         3
     170         1
     169         2
     168         5
     167         1
     166         4
     165         2
     163         1
     162         2
     161         2
     160         3
     159         2
     158         2
     157         1
     156         3
     155         3
     154         1
     153         2
     152         3
     151         2
     150         1